Instance name: /home/cuong/CLionProjects/uMV-FSTSP/50_dis_rand_ins/v26
Write arg val: 1

drone speed: 1 miles/minute
uav non-eligible customer: 8 9 11 
Printing tau:
0 11.8501 41.2129 52.8999 51.889 53.9001 59.6996 54.1176 45.8088 88.392 105.14 0 
11.8501 0 53.063 52.84 63.739 65.7502 71.5497 65.9677 57.6589 100.242 116.99 11.8501 
41.2129 53.063 0 13.4021 42.2589 35.8254 40.861 69.0712 72.7896 47.1791 63.9269 41.2129 
52.8999 52.84 13.4021 0 55.661 49.2275 54.2631 82.4733 86.1917 57.923 68.9814 52.8999 
51.889 63.739 42.2589 55.661 0 6.43346 7.81067 26.8123 30.5307 36.5031 53.2508 51.889 
53.9001 65.7502 35.8254 49.2275 6.43346 0 5.79948 33.2458 36.9642 34.4919 51.2396 53.9001 
59.6996 71.5497 40.861 54.2631 7.81067 5.79948 0 28.2102 31.9286 28.6924 45.4401 59.6996 
54.1176 65.9677 69.0712 82.4733 26.8123 33.2458 28.2102 0 8.30877 34.2744 51.0222 54.1176 
45.8088 57.6589 72.7896 86.1917 30.5307 36.9642 31.9286 8.30877 0 42.5832 59.3309 45.8088 
88.392 100.242 47.1791 57.923 36.5031 34.4919 28.6924 34.2744 42.5832 0 16.7477 88.392 
105.14 116.99 63.9269 68.9814 53.2508 51.2396 45.4401 51.0222 59.3309 16.7477 0 105.14 
0 0 0 0 0 0 0 0 0 0 0 0 
Printing tau_prime:
0 3.14227 15.1367 16.9909 13.7786 14.3256 15.8344 16.353 15.0159 23.4763 27.9247 0 
3.14227 0 17.5311 18.9308 16.9179 17.461 18.9762 19.1761 17.6626 26.6149 31.0616 3.14227 
15.1367 17.5311 0 3.79811 11.5576 10.0778 11.8922 18.6322 19.3397 17.201 19.1375 15.1367 
16.9909 18.9308 3.79811 0 15.3374 13.8753 15.6844 22.3815 22.9978 20.6819 22.1188 16.9909 
13.7786 16.9179 11.5576 15.3374 0 1.78734 2.10402 7.13421 8.25465 9.69791 14.31 13.7786 
14.3256 17.461 10.0778 13.8753 1.78734 0 2.03662 8.81581 10.0337 9.43221 13.601 14.3256 
15.8344 18.9762 11.8922 15.6844 2.10402 2.03662 0 7.62539 9.23288 7.66987 12.2063 15.8344 
16.353 19.1761 18.6322 22.3815 7.13421 8.81581 7.62539 0 2.41376 11.1793 16.4929 16.353 
15.0159 17.6626 19.3397 22.9978 8.25465 10.0337 9.23288 2.41376 0 13.5531 18.8695 15.0159 
23.4763 26.6149 17.201 20.6819 9.69791 9.43221 7.66987 11.1793 13.5531 0 5.31639 23.4763 
27.9247 31.0616 19.1375 22.1188 14.31 13.601 12.2063 16.4929 18.8695 5.31639 0 27.9247 
0 0 0 0 0 0 0 0 0 0 0 0 
Version identifier: 22.1.1.0 | 2022-11-28 | 9160aff4d
CPXPARAM_MIP_Tolerances_Integrality              0
Tried aggregator 1 time.
MIP Presolve eliminated 1 rows and 12 columns.
MIP Presolve modified 20 coefficients.
Reduced MIP has 122 rows, 120 columns, and 510 nonzeros.
Reduced MIP has 110 binaries, 0 generals, 0 SOSs, and 0 indicators.
Presolve time = 0.00 sec. (0.27 ticks)
Found incumbent of value 501.398580 after 0.00 sec. (0.75 ticks)
Probing time = 0.00 sec. (0.26 ticks)
Cover probing fixed 0 vars, tightened 10 bounds.
Tried aggregator 1 time.
Detecting symmetries...
MIP Presolve eliminated 10 rows and 0 columns.
MIP Presolve modified 180 coefficients.
Reduced MIP has 112 rows, 120 columns, and 490 nonzeros.
Reduced MIP has 110 binaries, 0 generals, 0 SOSs, and 0 indicators.
Presolve time = 0.00 sec. (0.35 ticks)
Probing time = 0.00 sec. (0.26 ticks)
Clique table members: 67.
MIP emphasis: balance optimality and feasibility.
MIP search method: dynamic search.
Parallel mode: deterministic, using up to 20 threads.
Root relaxation solution time = 0.00 sec. (0.23 ticks)

        Nodes                                         Cuts/
   Node  Left     Objective  IInf  Best Integer    Best Bound    ItCnt     Gap

*     0+    0                          501.3986        0.0000           100.00%
      0     0      145.6049    19      501.3986      145.6049       27   70.96%
      0     0      245.3808    18      501.3986      Cuts: 51       50   51.06%
*     0+    0                          322.5293      245.3808            23.92%
      0     0      245.3808    18      322.5293       Cuts: 4       55   23.92%
*     0+    0                          312.5479      245.3808            21.49%
      0     0      245.3808    18      312.5479       Cuts: 4       60   21.49%
*     0+    0                          304.6684      245.3808            19.46%
*     0+    0                          278.7415      245.3808            11.97%
Detecting symmetries...
      0     2      245.3808    18      278.7415      245.3808       60   11.97%
Elapsed time = 0.03 sec. (8.50 ticks, tree = 0.02 MB, solutions = 5)

Clique cuts applied:  3
Implied bound cuts applied:  300
Mixed integer rounding cuts applied:  10
Multi commodity flow cuts applied:  2
Gomory fractional cuts applied:  1

Root node processing (before b&c):
  Real time             =    0.03 sec. (8.43 ticks)
Parallel b&c, 20 threads:
  Real time             =    0.02 sec. (15.33 ticks)
  Sync time (average)   =    0.01 sec.
  Wait time (average)   =    0.00 sec.
                          ------------
Total (root+branch&cut) =    0.05 sec. (23.76 ticks)

TSP solution for this instance: 0 1 3 2 5 4 6 10 9 7 8 11 
12
Warmstart X[1][0] == 1
Warmstart X[2][1] == 1
Warmstart X[3][3] == 1
Warmstart X[4][2] == 1
Warmstart X[5][5] == 1
Warmstart X[6][4] == 1
Warmstart X[7][6] == 1
Warmstart X[8][10] == 1
Warmstart X[9][9] == 1
Warmstart X[10][7] == 1
Warmstart X[11][8] == 1
---------------------------------------------
Calculate max stage gap for sortie.... 
Stage gap of 4 with smallest length = 23.1979 violated endurance constraint!
---------------------------------------------
Variable z[1][5] was set to 0.
Variable z[1][6] was set to 0.
Variable z[1][7] was set to 0.
Variable z[1][8] was set to 0.
Variable z[1][9] was set to 0.
Variable z[1][10] was set to 0.
Variable z[1][11] was set to 0.
Variable z[1][12] was set to 0.
Variable z[2][6] was set to 0.
Variable z[2][7] was set to 0.
Variable z[2][8] was set to 0.
Variable z[2][9] was set to 0.
Variable z[2][10] was set to 0.
Variable z[2][11] was set to 0.
Variable z[2][12] was set to 0.
Variable z[3][7] was set to 0.
Variable z[3][8] was set to 0.
Variable z[3][9] was set to 0.
Variable z[3][10] was set to 0.
Variable z[3][11] was set to 0.
Variable z[3][12] was set to 0.
Variable z[4][8] was set to 0.
Variable z[4][9] was set to 0.
Variable z[4][10] was set to 0.
Variable z[4][11] was set to 0.
Variable z[4][12] was set to 0.
Variable z[5][9] was set to 0.
Variable z[5][10] was set to 0.
Variable z[5][11] was set to 0.
Variable z[5][12] was set to 0.
Variable z[6][10] was set to 0.
Variable z[6][11] was set to 0.
Variable z[6][12] was set to 0.
Variable z[7][11] was set to 0.
Variable z[7][12] was set to 0.
Variable z[8][12] was set to 0.
Num constraint added = 4752
Warning:  Output names have been modified due to duplicate names or characters invalid in LP format.
Version identifier: 22.1.1.0 | 2022-11-28 | 9160aff4d
CPXPARAM_TimeLimit                               200
CPXPARAM_MIP_Tolerances_Integrality              0
1 of 1 MIP starts provided solutions.
MIP start 'm1' defined initial solution with objective 278.7415.
Tried aggregator 2 times.
MIP Presolve eliminated 6268 rows and 2411 columns.
MIP Presolve modified 1837 coefficients.
Aggregator did 31 substitutions.
Reduced MIP has 1230 rows, 2334 columns, and 43862 nonzeros.
Reduced MIP has 2313 binaries, 0 generals, 0 SOSs, and 0 indicators.
Presolve time = 0.05 sec. (155.92 ticks)
Probing fixed 187 vars, tightened 0 bounds.
Probing changed sense of 4 constraints.
Probing time = 0.03 sec. (63.67 ticks)
Tried aggregator 2 times.
Detecting symmetries...
MIP Presolve eliminated 43 rows and 187 columns.
MIP Presolve modified 179 coefficients.
Aggregator did 19 substitutions.
Reduced MIP has 1168 rows, 2128 columns, and 38854 nonzeros.
Reduced MIP has 2107 binaries, 0 generals, 0 SOSs, and 0 indicators.
Presolve time = 0.03 sec. (62.32 ticks)
Probing time = 0.00 sec. (5.17 ticks)
Clique table members: 9016.
MIP emphasis: balance optimality and feasibility.
MIP search method: dynamic search.
Parallel mode: deterministic, using up to 20 threads.
Root relaxation solution time = 0.11 sec. (248.46 ticks)

        Nodes                                         Cuts/
   Node  Left     Objective  IInf  Best Integer    Best Bound    ItCnt     Gap

*     0+    0                          278.7415       11.8501            95.75%
      0     0      182.0976   277      278.7415      182.0976       30   34.67%
      0     0      196.1973   236      278.7415      Cuts: 26     3280   29.61%
      0     0      199.3783   226      278.7415      Cuts: 42     4720   27.68%
*     0+    0                          272.2970      201.5776            25.97%
      0     0      202.2287   254      272.2970      Cuts: 38     6700   25.49%
      0     0      202.9193   242      272.2970      Cuts: 24     7733   25.48%
      0     0      202.9782   300      272.2970       Cuts: 4     8096   25.46%
Detecting symmetries...
      0     0      203.1755   268      272.2970      Cuts: 10     8451   25.38%
      0     0      203.1932   264      272.2970    MIRcuts: 1     8455   25.38%
      0     0      203.1957   261      272.2970   ZeroHalf: 1     8541   25.38%
      0     0      203.1997   252      272.2970   ZeroHalf: 1     8568   25.38%
      0     0      203.1997   251      272.2970       Cuts: 3     8599   25.38%
*     0+    0                          272.2969      203.1997            25.38%
Detecting symmetries...
      0     2      203.1997   251      272.2969      205.2193     8599   24.63%
Elapsed time = 1.39 sec. (2722.29 ticks, tree = 0.02 MB, solutions = 3)
      2     3      203.8858   252      272.2969      205.2193    10485   24.63%
      5     4      225.2639   230      272.2969      205.2193    13486   24.63%
    181    30      235.6536    83      272.2969      206.8252    31912   24.04%
   1099   241      248.1943   118      272.2969      213.7365    82385   21.51%
   1887   482      249.9111    98      272.2969      219.5499   123226   19.37%
   2187   676        cutoff            272.2969      219.5499   162030   19.37%
   2621   600      268.7626    46      272.2969      220.3339   180158   19.08%
   3497   812      241.1723    89      272.2969      221.5860   229351   18.62%
   4504  1058    infeasible            272.2969      229.2491   273145   15.81%
   7435  1757    infeasible            272.2969      245.2024   446114    9.95%
Elapsed time = 4.28 sec. (6085.08 ticks, tree = 14.61 MB, solutions = 3)

Performing restart 1

Repeating presolve.
Tried aggregator 2 times.
MIP Presolve eliminated 42 rows and 151 columns.
MIP Presolve modified 5750 coefficients.
Aggregator did 2 substitutions.
Reduced MIP has 1124 rows, 1975 columns, and 31783 nonzeros.
Reduced MIP has 1954 binaries, 0 generals, 0 SOSs, and 0 indicators.
Presolve time = 0.03 sec. (59.20 ticks)
Tried aggregator 1 time.
MIP Presolve eliminated 1 rows and 10 columns.
MIP Presolve modified 47 coefficients.
Reduced MIP has 1123 rows, 1965 columns, and 31706 nonzeros.
Reduced MIP has 1944 binaries, 0 generals, 0 SOSs, and 0 indicators.
Presolve time = 0.02 sec. (38.23 ticks)
Represolve time = 0.10 sec. (161.82 ticks)
   9317     0      203.1998   282      272.2969      Cuts: 21   547571    8.79%
   9317     0      203.5569   297      272.2969      Cuts: 31   549778    8.79%
   9317     0      203.9077   294      272.2969      Cuts: 11   551625    8.79%
   9317     0      204.5796   285      272.2969       Cuts: 8   553429    8.79%
   9317     0      204.7213   298      272.2969   ZeroHalf: 1   554012    8.79%
   9317     0      205.1593   244      272.2969      Cuts: 16   554321    8.79%
   9317     0      205.2201   268      272.2969  ZeroHalf: 17   555228    8.79%
   9317     0      205.2591   291      272.2969       Cuts: 8   555550    8.79%
   9317     2      205.2591   291      272.2969      248.3502   555550    8.79%
   9345     8        cutoff            272.2969      248.3502   562073    8.79%
   9434     9      237.0487    81      272.2969      248.3502   579029    8.79%
   9531     8      208.9891    66      272.2969      248.3502   585151    8.79%
   9850     8        cutoff            272.2969      248.3502   626491    8.79%
   9921    11        cutoff            272.2969      248.3502   659678    8.79%
  10387    23      242.7083   171      272.2969      248.3502   715716    8.79%
  11343    33      267.5623    68      272.2969      248.3502   820844    8.79%
  11829    14      241.6176    97      272.2969      248.3502   949690    8.79%
  11873     9      244.6296    56      272.2969      248.3502   966457    8.79%
Elapsed time = 14.51 sec. (20420.60 ticks, tree = 0.02 MB, solutions = 3)
  11922    14      255.9374   250      272.2969      248.3502   978509    8.79%

GUB cover cuts applied:  7
Clique cuts applied:  5
Cover cuts applied:  15
Flow cuts applied:  1
Mixed integer rounding cuts applied:  3
Zero-half cuts applied:  22
Lift and project cuts applied:  1
Gomory fractional cuts applied:  2

Root node processing (before b&c):
  Real time             =    1.34 sec. (2649.81 ticks)
Parallel b&c, 20 threads:
  Real time             =   13.83 sec. (18907.46 ticks)
  Sync time (average)   =    6.51 sec.
  Wait time (average)   =    0.01 sec.
                          ------------
Total (root+branch&cut) =   15.17 sec. (21557.28 ticks)
Feasible solution found!
Truck nodes:
Stage 1 at customer 0 with arrival time is: 0
Stage 1 at customer 0 with departure time is: 0
Stage 2 at customer 1 with arrival time is: 11.8501
Stage 2 at customer 1 with departure time is: 11.8501
Stage 3 at customer 3 with arrival time is: 64.6901
Stage 3 at customer 3 with departure time is: 64.6901
Stage 4 at customer 2 with arrival time is: 78.0922
Stage 4 at customer 2 with departure time is: 78.0922
Stage 5 at customer 5 with arrival time is: 113.918
Stage 5 at customer 5 with departure time is: 114.918
Stage 6 at customer 6 with arrival time is: 120.717
Stage 6 at customer 6 with departure time is: 121.717
Stage 7 at customer 9 with arrival time is: 150.409
Stage 7 at customer 9 with departure time is: 150.409
Stage 8 at customer 10 with arrival time is: 167.157
Stage 8 at customer 10 with departure time is: 167.157
Stage 9 at customer 9 with arrival time is: 183.905
Stage 9 at customer 9 with departure time is: 183.905
Stage 10 at customer 7 with arrival time is: 218.179
Stage 10 at customer 7 with departure time is: 218.179
Stage 11 at customer 8 with arrival time is: 226.488
Stage 11 at customer 8 with departure time is: 226.488
Stage 12 at customer 11 with arrival time is: 272.297
Stage 12 at customer 11 with departure time is: 272.297
Truck arcs:
Arc 1 connecting 0 and 1 with cost 11.8501 
Arc 2 connecting 1 and 3 with cost 52.84 
Arc 3 connecting 3 and 2 with cost 13.4021 
Arc 4 connecting 2 and 5 with cost 35.8254 
Arc 5 connecting 5 and 6 with cost 5.79948 
Arc 6 connecting 6 and 9 with cost 28.6924 
Arc 7 connecting 9 and 10 with cost 16.7477 
Arc 8 connecting 10 and 9 with cost 16.7477 
Arc 9 connecting 9 and 7 with cost 34.2744 
Arc 10 connecting 7 and 8 with cost 8.30877 
Arc 11 connecting 8 and 11 with cost 45.8088 
Customer 4 served by drone.
Drone fly from 5 at stage 5 to serve 4 and then fly back to 6 at stage 6. 
Truck arcs during this sortie: 5--->6
Truck travel time from stage 5 to 6 is: 5.79948
Total drone travel time: 3.89136
Drone arrival time: 118.809
Truck arrival time: 120.717
Truck departure time = max(d/a, t/a) plus (sl/sr): 121.717
Done!
-------------------------Re-calculated objective-----------------------
272.297
------------------------------------------------------------------------
Solve time: 15.17
Node 9 was revisited 1 times!
OBJECTIVE VALUE: 272.297, NUMBER OF SORTIES: 1.
Number of revisit: 1
In write mode
